100
128
8
25
52
26
33
21
37
39
25
4
27
27
23
4
15
3
25
5
35
28
29
1
26
3
19
3
2
30
52
20
41
2
48
53
18
44
56
1
1
61
5
42
50
4
1
58
55
50
42
6
53
14
55
3
44
17
8
43
58
4
34
39
59
35
5
2
2
3
43
53
44
44
58
64
4
3
2
40
47
4
1
52
1
8
2
48
29
60
9
55
7
54
14
3
3
32
11
51
62
14